%Datos
personas = ["santiago", "andres", "paula","camila"]; %personas que participaran de la foto
next=[|2, 4|]; %la persona en la posición 2 debe estar junto a la persona en la posición 4
separate=[|1, 3|]; %la persona en la posición 1 no debe estar junto a la persona en la posición 3
distance=[|2, 3, 1|]; %la persona en la posición 2 debe estar separada de la persona en la posición 3 como maximo por 1 persona